10094.0
1 0 1 1 0 1 1 1 0 0 1 0 1 1 1 1 1 0 1 1 
15 6 19 10 12 13 5 16 15 5 5 3 6 13 6 12 12 16 2 15 0 0 10 14 14 14 7 3 19 7 2 15 19 19 15 5 13 13 10 0 0 13 13 18 16 5 5 5 5 19 15 2 0 14 14 10 6 6 13 12 13 5 5 5 15 15 10 3 7 7 15 0 0 0 10 19 19 19 19 3 19 5 16 12 13 13 6 2 12 5 13 13 13 18 18 13 13 18 13 13 